results_rootrelaxation/bin012_060_024.srr.sol
solution status: optimal solution found
objective value:                     3.73809523809524
_var313_                            0.190476190476191 	(obj:0)
_var746_                            0.571428571428571 	(obj:0)
_var755_                            0.428571428571428 	(obj:0)
_var767_                            0.404761904761905 	(obj:0)
_var769_                           0.0714285714285718 	(obj:0)
_var783_                            0.571428571428572 	(obj:0)
_var787_                             0.19047619047619 	(obj:0)
_var796_                           0.0476190476190478 	(obj:1)
_var797_                            0.261904761904762 	(obj:1)
_var815_                           0.0714285714285717 	(obj:0)
_var818_                            0.214285714285715 	(obj:1)
_var832_                            0.142857142857143 	(obj:0)
_var837_                            0.357142857142857 	(obj:0)
_var845_                            0.214285714285714 	(obj:0)
_var847_                           0.0952380952380951 	(obj:0)
_var850_                            0.785714285714285 	(obj:0)
_var852_                            0.333333333333334 	(obj:1)
_var861_                            0.214285714285714 	(obj:2)
_var864_                            0.166666666666667 	(obj:1)
_var869_                            0.119047619047619 	(obj:0)
_var875_                            0.166666666666667 	(obj:0)
_var880_                           0.0238095238095233 	(obj:0)
_var881_                            0.142857142857143 	(obj:0)
_var886_                            0.357142857142857 	(obj:1)
_var897_                            0.119047619047619 	(obj:1)
_var898_                           0.0714285714285715 	(obj:0)
_var899_                           0.0952380952380954 	(obj:0)
_var901_                            0.119047619047619 	(obj:0)
_var902_                            0.380952380952381 	(obj:0)
_var903_                           0.0476190476190476 	(obj:0)
_var904_                            0.023809523809524 	(obj:1)
_var906_                           0.0952380952380967 	(obj:1)
_var907_                           0.0238095238095236 	(obj:1)
_var913_                           0.0714285714285717 	(obj:0)
_var915_                           0.0476190476190479 	(obj:1)
_var917_                            0.214285714285714 	(obj:1)
_var925_                           0.0238095238095232 	(obj:1)
_var926_                            0.142857142857143 	(obj:1)
_var929_                            0.261904761904762 	(obj:0)
_var931_                            0.166666666666667 	(obj:1)
_var932_                            0.214285714285713 	(obj:0)
_var933_                            0.166666666666667 	(obj:0)
_var938_                            0.142857142857143 	(obj:0)
_var940_                            0.380952380952381 	(obj:0)
_var941_                            0.261904761904762 	(obj:1)
_var944_                           0.0238095238095236 	(obj:0)
_var945_                           0.0714285714285714 	(obj:1)
_var949_                           0.0238095238095234 	(obj:1)
_var950_                             0.19047619047619 	(obj:0)
_var952_                            0.047619047619048 	(obj:0)
_var953_                            0.285714285714286 	(obj:1)
_var954_                            0.142857142857143 	(obj:0)
_var955_                            0.428571428571429 	(obj:0)
_var956_                           0.0714285714285715 	(obj:0)
_var959_                            0.166666666666666 	(obj:1)
_var960_                           0.0714285714285715 	(obj:0)
_var964_                            0.261904761904761 	(obj:1)
